0 76 181
1 88 202
2 87 212
3 219 221
4 185 223
5 221 224
6 153 225
7 186 226
8 222 226
9 218 226
10 218 226
11 193 224
12 196 223
13 182 223
14 220 223
15 221 223
16 215 222
17 216 222
18 223 223
19 218 221
20 218 220
21 156 221
22 187 220
23 175 221
24 199 222
25 213 221
26 205 220
27 220 220
28 219 219
29 205 219
30 218 218
31 214 217
32 214 217
33 216 216
34 215 215
35 208 214
36 191 214
37 186 215
38 208 215
39 188 214
40 152 214
41 195 213
42 208 211
43 209 210
44 202 209
45 210 210
46 185 209
47 200 208
48 194 208
49 194 209
50 208 209
51 198 208
52 85 208
53 56 207
54 188 219
55 217 219
56 214 219
57 217 221
58 220 221
59 216 220
60 212 219
61 219 219
62 198 217
63 211 217
64 198 216
65 196 215
66 188 215
67 213 215
68 184 214
69 169 212
70 164 211
71 144 211
72 50 213
73 109 214
74 145 222
75 177 223
76 214 226
77 226 227
78 123 226
79 226 226
80 186 226
81 185 226
82 222 225
83 211 224
84 170 223
85 214 222
86 179 222
87 219 221
88 216 220
89 181 219
90 99 218
91 190 220
92 147 218
93 118 216
94 215 215
95 207 215
96 149 215
97 210 216
98 206 215
99 165 213
100 207 212
101 200 211
102 206 210
103 207 209
104 205 209
105 112 208
106 193 206
107 186 205
108 87 203
109 134 207
110 196 208
111 194 207
112 87 206
113 205 205
114 154 204
115 81 205
116 191 208
117 208 208
118 198 207
119 202 206
120 137 206
121 154 205
122 174 206
123 200 210
124 69 209
125 202 209
126 203 212
127 208 211
128 177 211
129 186 211
130 200 210
131 166 211
132 207 211
133 204 209
134 151 208
135 203 207
136 176 207
137 198 206
138 200 205
139 204 205
140 204 204
141 202 202
142 200 202
143 201 201
144 165 199
145 198 200
146 186 199
147 174 197
148 110 195
149 179 195
150 190 195
151 192 195
152 193 195
153 175 194
154 185 194
155 192 194
156 159 193
157 190 192
158 190 191
159 159 191
160 187 190
161 190 190
162 163 190
163 188 189
164 168 188
165 187 189
166 188 188
167 171 187
168 179 186
169 154 186
170 175 185
171 152 184
172 183 184
173 66 182
174 75 181
175 163 182
176 158 181
177 179 181
178 177 180
179 180 180
180 177 179
181 59 179
182 173 178
183 144 178
184 124 179
185 179 179
186 175 178
187 176 177
188 172 176
189 168 174
190 28 175
191 150 175
192 151 175
193 170 175
194 138 175
195 171 174
196 165 173
197 151 171
198 162 171
199 169 169
200 161 168
201 152 169
202 62 168
203 168 169
204 131 169
205 155 169
206 170 172
207 117 172
208 160 174
209 56 173
210 39 175
211 123 176
212 168 178
213 177 179
214 177 178
215 177 178
216 177 178
217 169 177
218 127 176
219 176 176
220 172 175
221 146 175
222 175 175
223 176 176
224 168 177
225 152 176
226 132 175
227 105 173
228 151 171
229 104 170
230 160 168
231 145 169
232 129 167
233 46 166
234 124 171
235 105 173
236 154 176
237 171 177
238 175 180
239 170 181
240 159 182
241 168 182
242 92 182
243 175 183
244 179 182
245 147 182
246 82 181
247 168 181
248 168 180
249 162 177
250 168 175
251 156 172
252 138 173
253 161 173
254 169 173
255 137 172
256 27 171
257 54 170
258 101 170
259 175 175
260 165 174
261 141 173
262 118 171
263 169 170
264 151 168
265 72 168
266 161 168
267 144 168
268 166 167
269 162 165
270 104 165
271 169 171
272 144 170
273 158 171
274 138 171
275 121 171
276 174 174
277 172 173
278 172 173
279 35 173
280 158 172
281 161 172
282 163 171
283 158 170
284 132 170
285 94 170
286 134 169
287 154 169
288 168 168
289 167 167
290 152 167
291 142 166
292 115 167
293 163 166
294 64 166
295 99 166
296 128 167
297 166 168
298 166 167
299 163 166
300 128 166
301 4 166
302 153 168
303 134 169
304 137 169
305 86 167
306 152 170
307 165 171
308 164 172
309 163 170
310 168 168
311 166 167
312 149 167
313 112 167
314 132 165
315 134 163
316 119 161
317 126 161
318 160 162
319 143 162
320 136 161
321 18 159
322 140 162
323 101 162
324 152 162
325 151 164
326 103 163
327 157 162
328 160 163
329 156 164
330 161 164
331 136 166
332 160 166
333 142 167
334 158 167
335 160 166
336 155 165
337 152 165
338 126 164
339 157 163
340 145 161
341 133 160
342 2 158
343 125 157
344 134 158
345 134 158
346 158 158
347 132 158
348 126 158
349 150 157
350 149 155
351 152 155
352 26 154
353 146 153
354 32 154
355 112 153
356 149 153
357 153 153
358 80 152
359 148 153
360 147 152
361 127 150
362 146 150
363 144 148
364 146 147
365 66 147
366 143 146
367 141 145
368 142 145
369 103 144
370 140 143
371 104 140
372 107 139
373 139 141
374 121 141
375 117 140
376 95 138
377 131 142
378 106 143
379 78 142
380 138 141
381 15 140
382 131 140
383 134 138
384 130 137
385 123 137
386 62 138
387 131 137
388 9 135
389 123 134
390 102 134
391 125 133
392 24 134
393 71 135
394 119 134
395 108 134
396 134 134
397 104 133
398 119 133
399 104 131
400 117 131
401 110 131
402 19 131
403 15 131
404 130 132
405 127 132
406 132 132
407 131 131
408 124 131
409 115 130
410 130 131
411 124 130
412 126 128
413 128 128
414 51 127
415 127 127
416 90 126
417 100 125
418 123 124
419 114 123
420 104 122
421 102 125
422 116 124
423 101 122
424 106 122
425 103 121
426 56 119
427 64 118
428 108 116
429 87 114
430 92 114
431 105 111
432 104 108
433 89 107
434 86 105
435 105 105
436 96 106
437 84 105
438 106 107
439 89 107
440 103 105
441 82 105
442 86 104
443 91 103
444 96 100
445 86 99
446 86 99
447 97 101
448 99 99
449 92 99
450 99 99
451 87 97
452 70 96
453 97 97
454 88 97
455 76 97
456 90 96
457 70 95
458 92 92
459 89 91
460 82 90
461 51 89
462 87 89
463 58 89
464 82 87
465 61 87
466 47 84
467 53 81
468 75 81
469 76 80
470 49 81
471 48 80
472 76 78
473 54 76
474 69 73
475 71 72
476 70 70
477 69 69
478 60 66
479 65 67
480 60 71
481 49 72
482 40 72
483 73 74
484 56 73
485 58 71
486 70 70
487 54 69
488 65 66
489 65 67
490 65 67
491 68 69
492 63 68
493 65 68
494 67 68
495 65 67
496 66 67
497 45 66
498 64 64
499 55 61
500 36 63
501 43 60
502 58 58
503 56 56
504 49 55
505 44 54
506 38 53
507 48 51
508 41 50
509 45 49
510 40 47
511 10 46
512 43 46
513 47 47
514 44 46
515 44 44
516 32 43
517 39 41
518 37 39
519 35 36
520 25 38
521 36 36
522 24 36
523 35 35
524 10 34
525 25 32
526 24 32
527 30 32
528 27 33
529 28 34
530 34 34
531 32 33
532 24 32
533 26 31
534 28 29
535 21 26
536 19 26
537 21 24
538 22 25
539 23 24
540 10 24
541 23 23
542 21 22
543 16 22
544 21 24
545 21 24
546 19 23
547 24 24
548 19 23
549 21 22
550 20 20
551 16 19
552 18 18
553 17 18
554 17 17
555 15 18
556 13 17
557 8 16
558 10 14
559 12 15
560 10 14
561 13 14
562 13 14
563 8 15
564 13 14
565 6 13
566 4 12
567 11 11
568 1 10
569 8 10
570 6 10
571 7 10
572 3 10
573 8 9
574 5 8
575 5 6
576 4 5
577 4 4
578 3 4
579 2 4
580 2 2
581 1 1
582 1 1

